1600 3120
1 2 5
1 41 2
2 3 5
2 42 4
3 4 2
3 43 1
4 5 2
4 44 4
5 6 5
5 45 3
6 7 5
6 46 5
7 8 3
7 47 2
8 9 4
8 48 1
9 10 3
9 49 2
10 11 1
10 50 1
11 12 2
11 51 2
12 13 5
12 52 4
13 14 3
13 53 5
14 15 5
14 54 1
15 16 3
15 55 3
16 17 1
16 56 1
17 18 3
17 57 2
18 19 4
18 58 1
19 20 3
19 59 1
20 21 5
20 60 2
21 22 1
21 61 2
22 23 4
22 62 5
23 24 4
23 63 5
24 25 1
24 64 3
25 26 1
25 65 1
26 27 2
26 66 5
27 28 5
27 67 3
28 29 5
28 68 2
29 30 3
29 69 5
30 31 1
30 70 1
31 32 2
31 71 1
32 33 3
32 72 4
33 34 2
33 73 1
34 35 2
34 74 2
35 36 2
35 75 3
36 37 1
36 76 4
37 38 4
37 77 4
38 39 2
38 78 2
39 40 3
39 79 3
40 80 1
41 42 2
41 81 2
42 43 1
42 82 1
43 44 1
43 83 5
44 45 1
44 84 5
45 46 1
45 85 1
46 47 4
46 86 4
47 48 3
47 87 1
48 49 4
48 88 1
49 50 2
49 89 2
50 51 3
50 90 5
51 52 4
51 91 5
52 53 3
52 92 1
53 54 2
53 93 2
54 55 5
54 94 1
55 56 2
55 95 3
56 57 2
56 96 4
57 58 1
57 97 2
58 59 3
58 98 2
59 60 1
59 99 4
60 61 3
60 100 5
61 62 4
61 101 2
62 63 2
62 102 4
63 64 4
63 103 1
64 65 4
64 104 3
65 66 3
65 105 4
66 67 2
66 106 3
67 68 4
67 107 2
68 69 3
68 108 3
69 70 4
69 109 4
70 71 4
70 110 2
71 72 1
71 111 4
72 73 2
72 112 3
73 74 4
73 113 1
74 75 3
74 114 2
75 76 2
75 115 5
76 77 5
76 116 5
77 78 1
77 117 1
78 79 5
78 118 2
79 80 2
79 119 4
80 120 3
81 82 5
81 121 3
82 83 3
82 122 1
83 84 4
83 123 3
84 85 5
84 124 4
85 86 4
85 125 2
86 87 2
86 126 2
87 88 5
87 127 3
88 89 2
88 128 4
89 90 2
89 129 3
90 91 4
90 130 3
91 92 2
91 131 4
92 93 5
92 132 1
93 94 1
93 133 4
94 95 3
94 134 3
95 96 4
95 135 2
96 97 3
96 136 3
97 98 5
97 137 1
98 99 2
98 138 5
99 100 4
99 139 3
100 101 1
100 140 2
101 102 1
101 141 2
102 103 2
102 142 2
103 104 1
103 143 4
104 105 4
104 144 1
105 106 1
105 145 4
106 107 2
106 146 3
107 108 4
107 147 5
108 109 2
108 148 4
109 110 4
109 149 2
110 111 4
110 150 5
111 112 5
111 151 4
112 113 3
112 152 5
113 114 5
113 153 1
114 115 4
114 154 1
115 116 1
115 155 5
116 117 2
116 156 1
117 118 2
117 157 3
118 119 5
118 158 5
119 120 3
119 159 5
120 160 1
121 122 4
121 161 3
122 123 2
122 162 3
123 124 3
123 163 3
124 125 4
124 164 1
125 126 2
125 165 2
126 127 4
126 166 1
127 128 4
127 167 3
128 129 4
128 168 4
129 130 2
129 169 5
130 131 1
130 170 2
131 132 2
131 171 1
132 133 1
132 172 2
133 134 3
133 173 4
134 135 1
134 174 1
135 136 1
135 175 5
136 137 4
136 176 4
137 138 2
137 177 5
138 139 3
138 178 1
139 140 5
139 179 1
140 141 4
140 180 2
141 142 3
141 181 5
142 143 1
142 182 5
143 144 4
143 183 2
144 145 2
144 184 3
145 146 4
145 185 2
146 147 2
146 186 1
147 148 1
147 187 1
148 149 2
148 188 2
149 150 2
149 189 1
150 151 5
150 190 4
151 152 3
151 191 2
152 153 4
152 192 1
153 154 4
153 193 5
154 155 2
154 194 5
155 156 2
155 195 5
156 157 2
156 196 5
157 158 2
157 197 2
158 159 3
158 198 5
159 160 4
159 199 2
160 200 2
161 162 1
161 201 5
162 163 2
162 202 2
163 164 5
163 203 2
164 165 2
164 204 2
165 166 5
165 205 1
166 167 1
166 206 1
167 168 3
167 207 1
168 169 3
168 208 5
169 170 1
169 209 1
170 171 5
170 210 4
171 172 3
171 211 2
172 173 3
172 212 5
173 174 5
173 213 3
174 175 5
174 214 4
175 176 1
175 215 3
176 177 4
176 216 2
177 178 2
177 217 4
178 179 5
178 218 2
179 180 2
179 219 2
180 181 4
180 220 4
181 182 4
181 221 1
182 183 4
182 222 3
183 184 2
183 223 4
184 185 2
184 224 4
185 186 1
185 225 5
186 187 2
186 226 4
187 188 3
187 227 3
188 189 3
188 228 4
189 190 5
189 229 3
190 191 4
190 230 3
191 192 3
191 231 5
192 193 4
192 232 4
193 194 1
193 233 5
194 195 4
194 234 1
195 196 4
195 235 4
196 197 5
196 236 2
197 198 1
197 237 5
198 199 3
198 238 3
199 200 3
199 239 4
200 240 2
201 202 4
201 241 5
202 203 2
202 242 5
203 204 3
203 243 5
204 205 1
204 244 5
205 206 3
205 245 5
206 207 4
206 246 1
207 208 3
207 247 2
208 209 5
208 248 3
209 210 5
209 249 4
210 211 5
210 250 3
211 212 5
211 251 4
212 213 3
212 252 5
213 214 4
213 253 5
214 215 4
214 254 5
215 216 1
215 255 5
216 217 5
216 256 5
217 218 1
217 257 2
218 219 4
218 258 4
219 220 5
219 259 2
220 221 2
220 260 1
221 222 2
221 261 1
222 223 3
222 262 5
223 224 5
223 263 3
224 225 4
224 264 5
225 226 1
225 265 5
226 227 5
226 266 2
227 228 2
227 267 5
228 229 1
228 268 4
229 230 3
229 269 4
230 231 5
230 270 3
231 232 2
231 271 4
232 233 2
232 272 4
233 234 1
233 273 2
234 235 5
234 274 3
235 236 4
235 275 2
236 237 5
236 276 3
237 238 2
237 277 5
238 239 1
238 278 3
239 240 2
239 279 2
240 280 3
241 242 5
241 281 1
242 243 3
242 282 4
243 244 5
243 283 4
244 245 1
244 284 3
245 246 3
245 285 1
246 247 3
246 286 4
247 248 5
247 287 5
248 249 1
248 288 4
249 250 5
249 289 4
250 251 1
250 290 2
251 252 5
251 291 3
252 253 5
252 292 3
253 254 1
253 293 1
254 255 1
254 294 3
255 256 4
255 295 2
256 257 3
256 296 3
257 258 1
257 297 1
258 259 3
258 298 2
259 260 5
259 299 4
260 261 4
260 300 2
261 262 1
261 301 5
262 263 2
262 302 3
263 264 4
263 303 3
264 265 2
264 304 3
265 266 5
265 305 2
266 267 3
266 306 2
267 268 2
267 307 2
268 269 4
268 308 5
269 270 4
269 309 3
270 271 1
270 310 2
271 272 2
271 311 2
272 273 5
272 312 3
273 274 5
273 313 2
274 275 4
274 314 1
275 276 1
275 315 2
276 277 5
276 316 1
277 278 4
277 317 3
278 279 1
278 318 4
279 280 1
279 319 3
280 320 4
281 282 3
281 321 2
282 283 2
282 322 4
283 284 5
283 323 4
284 285 3
284 324 5
285 286 3
285 325 3
286 287 1
286 326 1
287 288 3
287 327 5
288 289 4
288 328 1
289 290 5
289 329 3
290 291 2
290 330 1
291 292 3
291 331 4
292 293 5
292 332 2
293 294 1
293 333 3
294 295 4
294 334 1
295 296 2
295 335 4
296 297 3
296 336 2
297 298 4
297 337 2
298 299 3
298 338 5
299 300 5
299 339 1
300 301 5
300 340 1
301 302 3
301 341 3
302 303 5
302 342 2
303 304 2
303 343 5
304 305 2
304 344 1
305 306 1
305 345 2
306 307 2
306 346 2
307 308 5
307 347 1
308 309 3
308 348 4
309 310 4
309 349 5
310 311 4
310 350 4
311 312 4
311 351 4
312 313 5
312 352 4
313 314 1
313 353 4
314 315 2
314 354 5
315 316 3
315 355 5
316 317 5
316 356 1
317 318 1
317 357 2
318 319 2
318 358 1
319 320 3
319 359 3
320 360 3
321 322 5
321 361 4
322 323 3
322 362 3
323 324 2
323 363 4
324 325 1
324 364 5
325 326 3
325 365 2
326 327 5
326 366 2
327 328 5
327 367 2
328 329 5
328 368 4
329 330 2
329 369 4
330 331 2
330 370 3
331 332 5
331 371 4
332 333 5
332 372 1
333 334 4
333 373 1
334 335 5
334 374 3
335 336 2
335 375 5
336 337 3
336 376 1
337 338 3
337 377 1
338 339 5
338 378 2
339 340 1
339 379 5
340 341 2
340 380 5
341 342 1
341 381 3
342 343 4
342 382 2
343 344 1
343 383 5
344 345 1
344 384 3
345 346 1
345 385 1
346 347 2
346 386 3
347 348 4
347 387 2
348 349 4
348 388 2
349 350 1
349 389 4
350 351 3
350 390 2
351 352 3
351 391 5
352 353 2
352 392 4
353 354 3
353 393 5
354 355 4
354 394 1
355 356 2
355 395 1
356 357 5
356 396 2
357 358 4
357 397 1
358 359 1
358 398 5
359 360 5
359 399 3
360 400 1
361 362 1
361 401 2
362 363 5
362 402 2
363 364 5
363 403 5
364 365 2
364 404 2
365 366 2
365 405 5
366 367 5
366 406 1
367 368 3
367 407 5
368 369 1
368 408 1
369 370 5
369 409 4
370 371 5
370 410 2
371 372 1
371 411 5
372 373 1
372 412 1
373 374 1
373 413 3
374 375 2
374 414 3
375 376 4
375 415 2
376 377 5
376 416 1
377 378 2
377 417 2
378 379 2
378 418 3
379 380 3
379 419 4
380 381 2
380 420 2
381 382 2
381 421 3
382 383 1
382 422 3
383 384 2
383 423 4
384 385 3
384 424 1
385 386 5
385 425 2
386 387 1
386 426 1
387 388 3
387 427 2
388 389 4
388 428 4
389 390 3
389 429 4
390 391 1
390 430 5
391 392 4
391 431 4
392 393 1
392 432 1
393 394 1
393 433 5
394 395 5
394 434 2
395 396 5
395 435 3
396 397 1
396 436 4
397 398 3
397 437 2
398 399 3
398 438 2
399 400 4
399 439 1
400 440 2
401 402 5
401 441 2
402 403 3
402 442 2
403 404 1
403 443 2
404 405 3
404 444 3
405 406 3
405 445 2
406 407 1
406 446 1
407 408 4
407 447 5
408 409 3
408 448 1
409 410 5
409 449 3
410 411 4
410 450 2
411 412 4
411 451 1
412 413 1
412 452 2
413 414 4
413 453 4
414 415 2
414 454 5
415 416 4
415 455 5
416 417 3
416 456 1
417 418 2
417 457 2
418 419 2
418 458 3
419 420 4
419 459 1
420 421 1
420 460 3
421 422 5
421 461 3
422 423 3
422 462 3
423 424 4
423 463 4
424 425 4
424 464 1
425 426 4
425 465 1
426 427 1
426 466 3
427 428 4
427 467 5
428 429 4
428 468 5
429 430 3
429 469 3
430 431 3
430 470 5
431 432 3
431 471 3
432 433 3
432 472 5
433 434 1
433 473 5
434 435 1
434 474 2
435 436 1
435 475 2
436 437 4
436 476 4
437 438 4
437 477 3
438 439 5
438 478 3
439 440 3
439 479 2
440 480 3
441 442 1
441 481 5
442 443 1
442 482 1
443 444 5
443 483 5
444 445 1
444 484 3
445 446 3
445 485 3
446 447 2
446 486 3
447 448 5
447 487 3
448 449 1
448 488 5
449 450 5
449 489 5
450 451 2
450 490 5
451 452 1
451 491 1
452 453 5
452 492 3
453 454 4
453 493 3
454 455 3
454 494 4
455 456 4
455 495 4
456 457 4
456 496 5
457 458 2
457 497 3
458 459 2
458 498 2
459 460 5
459 499 2
460 461 1
460 500 2
461 462 3
461 501 2
462 463 4
462 502 1
463 464 2
463 503 4
464 465 3
464 504 5
465 466 3
465 505 5
466 467 4
466 506 1
467 468 4
467 507 5
468 469 1
468 508 3
469 470 4
469 509 5
470 471 5
470 510 2
471 472 1
471 511 4
472 473 3
472 512 4
473 474 4
473 513 5
474 475 3
474 514 1
475 476 2
475 515 4
476 477 1
476 516 2
477 478 5
477 517 2
478 479 2
478 518 1
479 480 4
479 519 1
480 520 4
481 482 2
481 521 3
482 483 2
482 522 4
483 484 4
483 523 4
484 485 2
484 524 4
485 486 3
485 525 1
486 487 3
486 526 4
487 488 2
487 527 3
488 489 2
488 528 4
489 490 1
489 529 1
490 491 4
490 530 2
491 492 5
491 531 1
492 493 3
492 532 3
493 494 3
493 533 4
494 495 3
494 534 2
495 496 5
495 535 3
496 497 3
496 536 3
497 498 5
497 537 1
498 499 4
498 538 2
499 500 2
499 539 1
500 501 2
500 540 2
501 502 3
501 541 5
502 503 4
502 542 3
503 504 4
503 543 2
504 505 3
504 544 4
505 506 3
505 545 4
506 507 2
506 546 2
507 508 5
507 547 5
508 509 3
508 548 1
509 510 1
509 549 2
510 511 2
510 550 1
511 512 2
511 551 5
512 513 3
512 552 1
513 514 1
513 553 2
514 515 2
514 554 5
515 516 3
515 555 3
516 517 2
516 556 5
517 518 4
517 557 4
518 519 2
518 558 2
519 520 5
519 559 3
520 560 3
521 522 5
521 561 2
522 523 2
522 562 1
523 524 2
523 563 4
524 525 3
524 564 2
525 526 2
525 565 1
526 527 2
526 566 3
527 528 5
527 567 5
528 529 3
528 568 1
529 530 5
529 569 4
530 531 4
530 570 4
531 532 5
531 571 5
532 533 2
532 572 1
533 534 5
533 573 2
534 535 1
534 574 4
535 536 2
535 575 1
536 537 5
536 576 5
537 538 5
537 577 4
538 539 2
538 578 4
539 540 5
539 579 5
540 541 3
540 580 2
541 542 2
541 581 5
542 543 4
542 582 4
543 544 3
543 583 3
544 545 1
544 584 2
545 546 3
545 585 4
546 547 3
546 586 2
547 548 1
547 587 5
548 549 3
548 588 4
549 550 1
549 589 4
550 551 5
550 590 1
551 552 2
551 591 3
552 553 3
552 592 5
553 554 2
553 593 3
554 555 3
554 594 4
555 556 1
555 595 5
556 557 2
556 596 5
557 558 4
557 597 3
558 559 4
558 598 2
559 560 1
559 599 5
560 600 1
561 562 4
561 601 5
562 563 3
562 602 5
563 564 2
563 603 1
564 565 4
564 604 5
565 566 4
565 605 4
566 567 3
566 606 4
567 568 1
567 607 2
568 569 4
568 608 1
569 570 3
569 609 1
570 571 1
570 610 3
571 572 3
571 611 1
572 573 3
572 612 1
573 574 2
573 613 5
574 575 5
574 614 5
575 576 4
575 615 5
576 577 2
576 616 3
577 578 3
577 617 5
578 579 1
578 618 1
579 580 1
579 619 3
580 581 4
580 620 3
581 582 5
581 621 4
582 583 4
582 622 5
583 584 5
583 623 1
584 585 5
584 624 2
585 586 2
585 625 2
586 587 3
586 626 4
587 588 4
587 627 1
588 589 4
588 628 1
589 590 5
589 629 3
590 591 4
590 630 4
591 592 5
591 631 4
592 593 5
592 632 3
593 594 5
593 633 2
594 595 2
594 634 4
595 596 4
595 635 4
596 597 5
596 636 2
597 598 1
597 637 3
598 599 3
598 638 2
599 600 1
599 639 2
600 640 1
601 602 3
601 641 4
602 603 3
602 642 3
603 604 4
603 643 4
604 605 1
604 644 4
605 606 2
605 645 1
606 607 5
606 646 5
607 608 5
607 647 1
608 609 4
608 648 2
609 610 5
609 649 2
610 611 3
610 650 2
611 612 1
611 651 4
612 613 1
612 652 2
613 614 4
613 653 4
614 615 3
614 654 3
615 616 4
615 655 3
616 617 3
616 656 2
617 618 3
617 657 1
618 619 1
618 658 5
619 620 4
619 659 1
620 621 5
620 660 4
621 622 4
621 661 4
622 623 3
622 662 2
623 624 1
623 663 3
624 625 3
624 664 1
625 626 2
625 665 2
626 627 4
626 666 1
627 628 4
627 667 5
628 629 1
628 668 4
629 630 3
629 669 5
630 631 4
630 670 5
631 632 2
631 671 2
632 633 2
632 672 3
633 634 5
633 673 5
634 635 2
634 674 4
635 636 4
635 675 3
636 637 2
636 676 4
637 638 5
637 677 4
638 639 1
638 678 4
639 640 1
639 679 3
640 680 4
641 642 1
641 681 5
642 643 1
642 682 1
643 644 3
643 683 5
644 645 3
644 684 3
645 646 5
645 685 2
646 647 2
646 686 3
647 648 1
647 687 2
648 649 5
648 688 2
649 650 2
649 689 1
650 651 3
650 690 5
651 652 4
651 691 1
652 653 2
652 692 2
653 654 4
653 693 3
654 655 1
654 694 3
655 656 4
655 695 2
656 657 5
656 696 3
657 658 1
657 697 4
658 659 2
658 698 3
659 660 5
659 699 5
660 661 1
660 700 2
661 662 5
661 701 4
662 663 2
662 702 2
663 664 3
663 703 3
664 665 2
664 704 1
665 666 1
665 705 4
666 667 2
666 706 2
667 668 4
667 707 5
668 669 4
668 708 4
669 670 4
669 709 1
670 671 5
670 710 1
671 672 4
671 711 5
672 673 3
672 712 1
673 674 3
673 713 2
674 675 3
674 714 1
675 676 4
675 715 2
676 677 3
676 716 3
677 678 4
677 717 3
678 679 1
678 718 1
679 680 4
679 719 4
680 720 5
681 682 3
681 721 2
682 683 3
682 722 3
683 684 1
683 723 2
684 685 1
684 724 2
685 686 4
685 725 2
686 687 2
686 726 1
687 688 3
687 727 2
688 689 2
688 728 1
689 690 2
689 729 5
690 691 5
690 730 3
691 692 5
691 731 2
692 693 5
692 732 3
693 694 3
693 733 2
694 695 3
694 734 4
695 696 2
695 735 4
696 697 5
696 736 5
697 698 3
697 737 5
698 699 2
698 738 4
699 700 1
699 739 3
700 701 2
700 740 2
701 702 5
701 741 1
702 703 4
702 742 4
703 704 4
703 743 5
704 705 1
704 744 1
705 706 2
705 745 3
706 707 4
706 746 2
707 708 2
707 747 2
708 709 3
708 748 4
709 710 1
709 749 4
710 711 5
710 750 5
711 712 4
711 751 2
712 713 4
712 752 1
713 714 2
713 753 4
714 715 5
714 754 2
715 716 3
715 755 3
716 717 3
716 756 5
717 718 2
717 757 3
718 719 3
718 758 1
719 720 4
719 759 1
720 760 4
721 722 4
721 761 4
722 723 3
722 762 4
723 724 2
723 763 3
724 725 2
724 764 1
725 726 1
725 765 2
726 727 4
726 766 2
727 728 2
727 767 2
728 729 2
728 768 4
729 730 4
729 769 3
730 731 4
730 770 1
731 732 4
731 771 3
732 733 3
732 772 1
733 734 3
733 773 5
734 735 3
734 774 2
735 736 5
735 775 1
736 737 4
736 776 1
737 738 4
737 777 5
738 739 5
738 778 4
739 740 1
739 779 4
740 741 5
740 780 2
741 742 5
741 781 5
742 743 3
742 782 1
743 744 1
743 783 3
744 745 1
744 784 2
745 746 5
745 785 4
746 747 4
746 786 3
747 748 2
747 787 3
748 749 4
748 788 4
749 750 4
749 789 3
750 751 5
750 790 5
751 752 4
751 791 1
752 753 4
752 792 2
753 754 5
753 793 1
754 755 1
754 794 1
755 756 5
755 795 4
756 757 2
756 796 3
757 758 5
757 797 3
758 759 2
758 798 4
759 760 4
759 799 3
760 800 5
761 762 1
761 801 1
762 763 1
762 802 3
763 764 4
763 803 5
764 765 4
764 804 5
765 766 1
765 805 4
766 767 4
766 806 5
767 768 5
767 807 3
768 769 5
768 808 1
769 770 3
769 809 2
770 771 4
770 810 2
771 772 2
771 811 5
772 773 2
772 812 5
773 774 5
773 813 5
774 775 2
774 814 5
775 776 1
775 815 5
776 777 5
776 816 2
777 778 4
777 817 5
778 779 3
778 818 4
779 780 2
779 819 3
780 781 3
780 820 2
781 782 3
781 821 1
782 783 2
782 822 1
783 784 2
783 823 1
784 785 4
784 824 1
785 786 5
785 825 2
786 787 1
786 826 3
787 788 2
787 827 2
788 789 3
788 828 1
789 790 3
789 829 1
790 791 3
790 830 1
791 792 1
791 831 4
792 793 1
792 832 2
793 794 3
793 833 5
794 795 3
794 834 1
795 796 5
795 835 2
796 797 1
796 836 4
797 798 5
797 837 3
798 799 2
798 838 5
799 800 3
799 839 2
800 840 1
801 802 2
801 841 1
802 803 1
802 842 1
803 804 3
803 843 2
804 805 5
804 844 3
805 806 1
805 845 1
806 807 4
806 846 1
807 808 5
807 847 2
808 809 4
808 848 4
809 810 5
809 849 3
810 811 3
810 850 4
811 812 5
811 851 5
812 813 1
812 852 5
813 814 4
813 853 3
814 815 4
814 854 1
815 816 3
815 855 2
816 817 5
816 856 4
817 818 4
817 857 5
818 819 2
818 858 1
819 820 1
819 859 3
820 821 3
820 860 2
821 822 5
821 861 1
822 823 3
822 862 1
823 824 3
823 863 1
824 825 3
824 864 4
825 826 1
825 865 3
826 827 5
826 866 4
827 828 4
827 867 3
828 829 3
828 868 5
829 830 1
829 869 2
830 831 3
830 870 5
831 832 5
831 871 2
832 833 2
832 872 2
833 834 3
833 873 4
834 835 4
834 874 4
835 836 4
835 875 5
836 837 1
836 876 4
837 838 1
837 877 1
838 839 3
838 878 1
839 840 4
839 879 3
840 880 4
841 842 3
841 881 1
842 843 4
842 882 5
843 844 1
843 883 4
844 845 1
844 884 3
845 846 4
845 885 1
846 847 5
846 886 3
847 848 4
847 887 4
848 849 3
848 888 5
849 850 1
849 889 1
850 851 4
850 890 5
851 852 2
851 891 3
852 853 1
852 892 5
853 854 1
853 893 5
854 855 4
854 894 3
855 856 1
855 895 4
856 857 3
856 896 1
857 858 3
857 897 2
858 859 5
858 898 2
859 860 3
859 899 5
860 861 4
860 900 2
861 862 1
861 901 5
862 863 4
862 902 3
863 864 2
863 903 2
864 865 4
864 904 5
865 866 1
865 905 3
866 867 2
866 906 1
867 868 2
867 907 4
868 869 5
868 908 1
869 870 3
869 909 5
870 871 5
870 910 5
871 872 4
871 911 1
872 873 2
872 912 5
873 874 1
873 913 2
874 875 1
874 914 1
875 876 2
875 915 3
876 877 1
876 916 4
877 878 4
877 917 2
878 879 1
878 918 1
879 880 2
879 919 2
880 920 2
881 882 4
881 921 2
882 883 5
882 922 4
883 884 3
883 923 2
884 885 2
884 924 2
885 886 1
885 925 4
886 887 5
886 926 5
887 888 1
887 927 1
888 889 5
888 928 3
889 890 5
889 929 4
890 891 3
890 930 2
891 892 3
891 931 3
892 893 4
892 932 2
893 894 3
893 933 4
894 895 5
894 934 1
895 896 5
895 935 4
896 897 3
896 936 1
897 898 5
897 937 3
898 899 1
898 938 5
899 900 2
899 939 4
900 901 3
900 940 4
901 902 1
901 941 2
902 903 3
902 942 2
903 904 5
903 943 1
904 905 4
904 944 5
905 906 2
905 945 2
906 907 2
906 946 3
907 908 3
907 947 5
908 909 1
908 948 5
909 910 2
909 949 1
910 911 4
910 950 5
911 912 4
911 951 2
912 913 2
912 952 4
913 914 4
913 953 5
914 915 2
914 954 2
915 916 5
915 955 4
916 917 3
916 956 3
917 918 3
917 957 3
918 919 1
918 958 2
919 920 3
919 959 4
920 960 3
921 922 2
921 961 4
922 923 5
922 962 1
923 924 5
923 963 1
924 925 1
924 964 1
925 926 5
925 965 3
926 927 1
926 966 2
927 928 5
927 967 2
928 929 5
928 968 5
929 930 5
929 969 4
930 931 3
930 970 1
931 932 1
931 971 2
932 933 3
932 972 4
933 934 2
933 973 5
934 935 2
934 974 4
935 936 2
935 975 2
936 937 1
936 976 1
937 938 4
937 977 3
938 939 2
938 978 4
939 940 3
939 979 5
940 941 4
940 980 3
941 942 4
941 981 4
942 943 1
942 982 4
943 944 5
943 983 5
944 945 3
944 984 4
945 946 5
945 985 2
946 947 3
946 986 3
947 948 5
947 987 4
948 949 4
948 988 5
949 950 5
949 989 3
950 951 3
950 990 5
951 952 1
951 991 2
952 953 4
952 992 2
953 954 2
953 993 4
954 955 3
954 994 3
955 956 5
955 995 3
956 957 3
956 996 4
957 958 1
957 997 3
958 959 2
958 998 2
959 960 4
959 999 5
960 1000 3
961 962 2
961 1001 3
962 963 4
962 1002 2
963 964 1
963 1003 2
964 965 4
964 1004 3
965 966 1
965 1005 3
966 967 3
966 1006 2
967 968 5
967 1007 2
968 969 1
968 1008 4
969 970 3
969 1009 5
970 971 5
970 1010 1
971 972 3
971 1011 3
972 973 1
972 1012 3
973 974 1
973 1013 4
974 975 5
974 1014 1
975 976 5
975 1015 5
976 977 3
976 1016 2
977 978 2
977 1017 2
978 979 2
978 1018 2
979 980 4
979 1019 4
980 981 2
980 1020 1
981 982 3
981 1021 5
982 983 5
982 1022 1
983 984 3
983 1023 4
984 985 3
984 1024 5
985 986 2
985 1025 4
986 987 4
986 1026 3
987 988 3
987 1027 2
988 989 3
988 1028 5
989 990 2
989 1029 3
990 991 3
990 1030 5
991 992 5
991 1031 2
992 993 3
992 1032 3
993 994 2
993 1033 2
994 995 3
994 1034 2
995 996 4
995 1035 1
996 997 3
996 1036 3
997 998 3
997 1037 4
998 999 2
998 1038 2
999 1000 5
999 1039 4
1000 1040 3
1001 1002 1
1001 1041 5
1002 1003 3
1002 1042 4
1003 1004 2
1003 1043 3
1004 1005 2
1004 1044 3
1005 1006 5
1005 1045 4
1006 1007 5
1006 1046 4
1007 1008 3
1007 1047 3
1008 1009 5
1008 1048 4
1009 1010 2
1009 1049 4
1010 1011 5
1010 1050 1
1011 1012 3
1011 1051 3
1012 1013 4
1012 1052 2
1013 1014 5
1013 1053 5
1014 1015 4
1014 1054 2
1015 1016 3
1015 1055 5
1016 1017 5
1016 1056 1
1017 1018 4
1017 1057 4
1018 1019 5
1018 1058 2
1019 1020 5
1019 1059 4
1020 1021 2
1020 1060 4
1021 1022 2
1021 1061 2
1022 1023 2
1022 1062 4
1023 1024 2
1023 1063 5
1024 1025 5
1024 1064 2
1025 1026 4
1025 1065 3
1026 1027 5
1026 1066 5
1027 1028 5
1027 1067 4
1028 1029 3
1028 1068 3
1029 1030 4
1029 1069 3
1030 1031 4
1030 1070 3
1031 1032 3
1031 1071 2
1032 1033 5
1032 1072 3
1033 1034 4
1033 1073 1
1034 1035 3
1034 1074 2
1035 1036 2
1035 1075 1
1036 1037 1
1036 1076 4
1037 1038 2
1037 1077 4
1038 1039 3
1038 1078 5
1039 1040 4
1039 1079 5
1040 1080 3
1041 1042 2
1041 1081 5
1042 1043 5
1042 1082 2
1043 1044 4
1043 1083 5
1044 1045 2
1044 1084 4
1045 1046 3
1045 1085 5
1046 1047 1
1046 1086 2
1047 1048 4
1047 1087 2
1048 1049 3
1048 1088 2
1049 1050 2
1049 1089 2
1050 1051 5
1050 1090 2
1051 1052 2
1051 1091 1
1052 1053 5
1052 1092 1
1053 1054 5
1053 1093 1
1054 1055 5
1054 1094 4
1055 1056 4
1055 1095 2
1056 1057 2
1056 1096 4
1057 1058 3
1057 1097 4
1058 1059 5
1058 1098 2
1059 1060 3
1059 1099 4
1060 1061 5
1060 1100 2
1061 1062 4
1061 1101 1
1062 1063 5
1062 1102 5
1063 1064 4
1063 1103 3
1064 1065 4
1064 1104 1
1065 1066 2
1065 1105 4
1066 1067 3
1066 1106 4
1067 1068 3
1067 1107 3
1068 1069 4
1068 1108 4
1069 1070 2
1069 1109 3
1070 1071 4
1070 1110 1
1071 1072 2
1071 1111 5
1072 1073 1
1072 1112 2
1073 1074 3
1073 1113 5
1074 1075 5
1074 1114 5
1075 1076 5
1075 1115 2
1076 1077 4
1076 1116 5
1077 1078 1
1077 1117 1
1078 1079 2
1078 1118 3
1079 1080 3
1079 1119 2
1080 1120 3
1081 1082 4
1081 1121 1
1082 1083 3
1082 1122 3
1083 1084 3
1083 1123 2
1084 1085 5
1084 1124 4
1085 1086 4
1085 1125 1
1086 1087 5
1086 1126 5
1087 1088 5
1087 1127 5
1088 1089 1
1088 1128 1
1089 1090 4
1089 1129 5
1090 1091 1
1090 1130 3
1091 1092 5
1091 1131 4
1092 1093 3
1092 1132 2
1093 1094 2
1093 1133 2
1094 1095 4
1094 1134 3
1095 1096 4
1095 1135 3
1096 1097 3
1096 1136 1
1097 1098 4
1097 1137 4
1098 1099 3
1098 1138 4
1099 1100 1
1099 1139 4
1100 1101 2
1100 1140 5
1101 1102 1
1101 1141 4
1102 1103 2
1102 1142 4
1103 1104 2
1103 1143 4
1104 1105 5
1104 1144 3
1105 1106 4
1105 1145 1
1106 1107 4
1106 1146 2
1107 1108 3
1107 1147 5
1108 1109 3
1108 1148 2
1109 1110 4
1109 1149 4
1110 1111 3
1110 1150 2
1111 1112 5
1111 1151 2
1112 1113 1
1112 1152 1
1113 1114 4
1113 1153 2
1114 1115 4
1114 1154 2
1115 1116 4
1115 1155 4
1116 1117 5
1116 1156 1
1117 1118 4
1117 1157 1
1118 1119 1
1118 1158 4
1119 1120 4
1119 1159 4
1120 1160 1
1121 1122 2
1121 1161 1
1122 1123 3
1122 1162 4
1123 1124 5
1123 1163 5
1124 1125 1
1124 1164 4
1125 1126 5
1125 1165 4
1126 1127 5
1126 1166 5
1127 1128 3
1127 1167 1
1128 1129 4
1128 1168 5
1129 1130 1
1129 1169 1
1130 1131 5
1130 1170 3
1131 1132 3
1131 1171 4
1132 1133 2
1132 1172 5
1133 1134 5
1133 1173 1
1134 1135 3
1134 1174 5
1135 1136 3
1135 1175 1
1136 1137 4
1136 1176 4
1137 1138 4
1137 1177 1
1138 1139 4
1138 1178 3
1139 1140 4
1139 1179 1
1140 1141 5
1140 1180 2
1141 1142 2
1141 1181 5
1142 1143 4
1142 1182 1
1143 1144 5
1143 1183 5
1144 1145 4
1144 1184 4
1145 1146 2
1145 1185 3
1146 1147 4
1146 1186 4
1147 1148 3
1147 1187 2
1148 1149 4
1148 1188 1
1149 1150 3
1149 1189 3
1150 1151 1
1150 1190 2
1151 1152 2
1151 1191 2
1152 1153 5
1152 1192 3
1153 1154 1
1153 1193 1
1154 1155 1
1154 1194 3
1155 1156 1
1155 1195 2
1156 1157 1
1156 1196 4
1157 1158 3
1157 1197 5
1158 1159 3
1158 1198 5
1159 1160 4
1159 1199 5
1160 1200 1
1161 1162 3
1161 1201 2
1162 1163 5
1162 1202 2
1163 1164 5
1163 1203 2
1164 1165 4
1164 1204 1
1165 1166 4
1165 1205 5
1166 1167 2
1166 1206 5
1167 1168 2
1167 1207 2
1168 1169 3
1168 1208 5
1169 1170 2
1169 1209 2
1170 1171 2
1170 1210 5
1171 1172 5
1171 1211 3
1172 1173 2
1172 1212 2
1173 1174 3
1173 1213 3
1174 1175 1
1174 1214 4
1175 1176 5
1175 1215 4
1176 1177 2
1176 1216 5
1177 1178 1
1177 1217 5
1178 1179 3
1178 1218 4
1179 1180 5
1179 1219 4
1180 1181 1
1180 1220 2
1181 1182 3
1181 1221 2
1182 1183 3
1182 1222 2
1183 1184 2
1183 1223 3
1184 1185 5
1184 1224 4
1185 1186 3
1185 1225 4
1186 1187 3
1186 1226 3
1187 1188 1
1187 1227 4
1188 1189 4
1188 1228 4
1189 1190 4
1189 1229 2
1190 1191 4
1190 1230 1
1191 1192 1
1191 1231 3
1192 1193 1
1192 1232 3
1193 1194 4
1193 1233 3
1194 1195 3
1194 1234 2
1195 1196 2
1195 1235 2
1196 1197 3
1196 1236 3
1197 1198 5
1197 1237 4
1198 1199 4
1198 1238 3
1199 1200 4
1199 1239 3
1200 1240 5
1201 1202 3
1201 1241 5
1202 1203 2
1202 1242 3
1203 1204 1
1203 1243 3
1204 1205 2
1204 1244 1
1205 1206 2
1205 1245 3
1206 1207 4
1206 1246 4
1207 1208 1
1207 1247 4
1208 1209 4
1208 1248 1
1209 1210 2
1209 1249 2
1210 1211 1
1210 1250 2
1211 1212 2
1211 1251 2
1212 1213 3
1212 1252 3
1213 1214 3
1213 1253 1
1214 1215 4
1214 1254 5
1215 1216 5
1215 1255 2
1216 1217 5
1216 1256 4
1217 1218 3
1217 1257 1
1218 1219 2
1218 1258 4
1219 1220 2
1219 1259 2
1220 1221 1
1220 1260 1
1221 1222 4
1221 1261 4
1222 1223 2
1222 1262 2
1223 1224 4
1223 1263 2
1224 1225 5
1224 1264 3
1225 1226 4
1225 1265 5
1226 1227 2
1226 1266 4
1227 1228 1
1227 1267 4
1228 1229 1
1228 1268 2
1229 1230 3
1229 1269 5
1230 1231 4
1230 1270 2
1231 1232 2
1231 1271 2
1232 1233 2
1232 1272 5
1233 1234 5
1233 1273 2
1234 1235 1
1234 1274 3
1235 1236 2
1235 1275 4
1236 1237 3
1236 1276 3
1237 1238 1
1237 1277 3
1238 1239 2
1238 1278 2
1239 1240 5
1239 1279 4
1240 1280 2
1241 1242 5
1241 1281 5
1242 1243 2
1242 1282 5
1243 1244 5
1243 1283 2
1244 1245 4
1244 1284 3
1245 1246 1
1245 1285 3
1246 1247 5
1246 1286 4
1247 1248 2
1247 1287 3
1248 1249 1
1248 1288 5
1249 1250 4
1249 1289 3
1250 1251 3
1250 1290 2
1251 1252 4
1251 1291 2
1252 1253 1
1252 1292 5
1253 1254 3
1253 1293 3
1254 1255 1
1254 1294 4
1255 1256 2
1255 1295 5
1256 1257 4
1256 1296 1
1257 1258 5
1257 1297 1
1258 1259 1
1258 1298 4
1259 1260 4
1259 1299 5
1260 1261 2
1260 1300 5
1261 1262 4
1261 1301 5
1262 1263 2
1262 1302 3
1263 1264 5
1263 1303 3
1264 1265 3
1264 1304 4
1265 1266 1
1265 1305 3
1266 1267 4
1266 1306 2
1267 1268 4
1267 1307 5
1268 1269 1
1268 1308 5
1269 1270 2
1269 1309 5
1270 1271 3
1270 1310 3
1271 1272 2
1271 1311 4
1272 1273 1
1272 1312 2
1273 1274 3
1273 1313 5
1274 1275 1
1274 1314 2
1275 1276 4
1275 1315 1
1276 1277 2
1276 1316 4
1277 1278 5
1277 1317 1
1278 1279 4
1278 1318 1
1279 1280 3
1279 1319 4
1280 1320 1
1281 1282 1
1281 1321 4
1282 1283 5
1282 1322 4
1283 1284 4
1283 1323 1
1284 1285 3
1284 1324 4
1285 1286 3
1285 1325 3
1286 1287 4
1286 1326 3
1287 1288 1
1287 1327 3
1288 1289 4
1288 1328 3
1289 1290 1
1289 1329 4
1290 1291 4
1290 1330 3
1291 1292 5
1291 1331 4
1292 1293 5
1292 1332 1
1293 1294 2
1293 1333 5
1294 1295 3
1294 1334 3
1295 1296 3
1295 1335 5
1296 1297 5
1296 1336 4
1297 1298 4
1297 1337 1
1298 1299 4
1298 1338 1
1299 1300 3
1299 1339 4
1300 1301 4
1300 1340 2
1301 1302 4
1301 1341 4
1302 1303 2
1302 1342 2
1303 1304 1
1303 1343 4
1304 1305 3
1304 1344 3
1305 1306 1
1305 1345 2
1306 1307 5
1306 1346 2
1307 1308 3
1307 1347 5
1308 1309 5
1308 1348 2
1309 1310 3
1309 1349 1
1310 1311 2
1310 1350 5
1311 1312 1
1311 1351 2
1312 1313 1
1312 1352 3
1313 1314 5
1313 1353 4
1314 1315 5
1314 1354 1
1315 1316 2
1315 1355 1
1316 1317 5
1316 1356 3
1317 1318 2
1317 1357 4
1318 1319 3
1318 1358 3
1319 1320 5
1319 1359 1
1320 1360 5
1321 1322 4
1321 1361 4
1322 1323 1
1322 1362 5
1323 1324 1
1323 1363 2
1324 1325 1
1324 1364 3
1325 1326 5
1325 1365 4
1326 1327 5
1326 1366 4
1327 1328 2
1327 1367 2
1328 1329 3
1328 1368 5
1329 1330 1
1329 1369 5
1330 1331 4
1330 1370 5
1331 1332 1
1331 1371 1
1332 1333 4
1332 1372 4
1333 1334 1
1333 1373 2
1334 1335 4
1334 1374 4
1335 1336 2
1335 1375 5
1336 1337 1
1336 1376 1
1337 1338 1
1337 1377 3
1338 1339 3
1338 1378 1
1339 1340 2
1339 1379 2
1340 1341 1
1340 1380 2
1341 1342 1
1341 1381 1
1342 1343 4
1342 1382 2
1343 1344 4
1343 1383 4
1344 1345 3
1344 1384 3
1345 1346 1
1345 1385 1
1346 1347 2
1346 1386 3
1347 1348 5
1347 1387 4
1348 1349 3
1348 1388 2
1349 1350 2
1349 1389 3
1350 1351 3
1350 1390 4
1351 1352 5
1351 1391 5
1352 1353 4
1352 1392 3
1353 1354 2
1353 1393 3
1354 1355 3
1354 1394 5
1355 1356 3
1355 1395 5
1356 1357 1
1356 1396 5
1357 1358 3
1357 1397 2
1358 1359 3
1358 1398 5
1359 1360 2
1359 1399 4
1360 1400 4
1361 1362 5
1361 1401 3
1362 1363 1
1362 1402 4
1363 1364 4
1363 1403 4
1364 1365 2
1364 1404 5
1365 1366 5
1365 1405 4
1366 1367 1
1366 1406 4
1367 1368 2
1367 1407 5
1368 1369 2
1368 1408 2
1369 1370 1
1369 1409 3
1370 1371 5
1370 1410 2
1371 1372 5
1371 1411 4
1372 1373 3
1372 1412 3
1373 1374 4
1373 1413 1
1374 1375 3
1374 1414 1
1375 1376 5
1375 1415 1
1376 1377 1
1376 1416 1
1377 1378 4
1377 1417 1
1378 1379 4
1378 1418 3
1379 1380 1
1379 1419 5
1380 1381 3
1380 1420 2
1381 1382 1
1381 1421 5
1382 1383 1
1382 1422 2
1383 1384 1
1383 1423 4
1384 1385 2
1384 1424 4
1385 1386 5
1385 1425 3
1386 1387 3
1386 1426 3
1387 1388 2
1387 1427 3
1388 1389 1
1388 1428 4
1389 1390 4
1389 1429 5
1390 1391 2
1390 1430 2
1391 1392 3
1391 1431 4
1392 1393 1
1392 1432 5
1393 1394 1
1393 1433 3
1394 1395 4
1394 1434 4
1395 1396 5
1395 1435 5
1396 1397 3
1396 1436 5
1397 1398 5
1397 1437 5
1398 1399 2
1398 1438 4
1399 1400 4
1399 1439 1
1400 1440 4
1401 1402 1
1401 1441 2
1402 1403 2
1402 1442 2
1403 1404 1
1403 1443 4
1404 1405 4
1404 1444 2
1405 1406 2
1405 1445 5
1406 1407 1
1406 1446 2
1407 1408 3
1407 1447 5
1408 1409 1
1408 1448 3
1409 1410 3
1409 1449 4
1410 1411 1
1410 1450 4
1411 1412 5
1411 1451 4
1412 1413 1
1412 1452 4
1413 1414 2
1413 1453 3
1414 1415 2
1414 1454 3
1415 1416 3
1415 1455 3
1416 1417 3
1416 1456 3
1417 1418 2
1417 1457 3
1418 1419 4
1418 1458 5
1419 1420 1
1419 1459 4
1420 1421 1
1420 1460 3
1421 1422 1
1421 1461 2
1422 1423 1
1422 1462 3
1423 1424 4
1423 1463 4
1424 1425 4
1424 1464 2
1425 1426 5
1425 1465 2
1426 1427 3
1426 1466 1
1427 1428 2
1427 1467 3
1428 1429 2
1428 1468 3
1429 1430 3
1429 1469 3
1430 1431 3
1430 1470 1
1431 1432 4
1431 1471 5
1432 1433 3
1432 1472 3
1433 1434 2
1433 1473 3
1434 1435 5
1434 1474 2
1435 1436 5
1435 1475 4
1436 1437 1
1436 1476 5
1437 1438 4
1437 1477 2
1438 1439 1
1438 1478 4
1439 1440 1
1439 1479 3
1440 1480 1
1441 1442 5
1441 1481 2
1442 1443 5
1442 1482 5
1443 1444 3
1443 1483 5
1444 1445 3
1444 1484 4
1445 1446 4
1445 1485 1
1446 1447 5
1446 1486 2
1447 1448 5
1447 1487 5
1448 1449 5
1448 1488 1
1449 1450 4
1449 1489 2
1450 1451 5
1450 1490 5
1451 1452 5
1451 1491 2
1452 1453 3
1452 1492 2
1453 1454 2
1453 1493 3
1454 1455 1
1454 1494 4
1455 1456 1
1455 1495 5
1456 1457 3
1456 1496 5
1457 1458 5
1457 1497 2
1458 1459 5
1458 1498 4
1459 1460 1
1459 1499 5
1460 1461 2
1460 1500 5
1461 1462 3
1461 1501 5
1462 1463 3
1462 1502 2
1463 1464 2
1463 1503 3
1464 1465 2
1464 1504 1
1465 1466 5
1465 1505 4
1466 1467 1
1466 1506 3
1467 1468 1
1467 1507 4
1468 1469 5
1468 1508 4
1469 1470 1
1469 1509 1
1470 1471 5
1470 1510 3
1471 1472 5
1471 1511 3
1472 1473 2
1472 1512 3
1473 1474 5
1473 1513 5
1474 1475 2
1474 1514 5
1475 1476 2
1475 1515 5
1476 1477 4
1476 1516 1
1477 1478 4
1477 1517 1
1478 1479 2
1478 1518 5
1479 1480 1
1479 1519 3
1480 1520 2
1481 1482 5
1481 1521 1
1482 1483 3
1482 1522 2
1483 1484 2
1483 1523 3
1484 1485 1
1484 1524 5
1485 1486 5
1485 1525 3
1486 1487 2
1486 1526 4
1487 1488 1
1487 1527 4
1488 1489 2
1488 1528 1
1489 1490 5
1489 1529 5
1490 1491 4
1490 1530 2
1491 1492 5
1491 1531 2
1492 1493 4
1492 1532 5
1493 1494 2
1493 1533 4
1494 1495 1
1494 1534 1
1495 1496 2
1495 1535 5
1496 1497 3
1496 1536 5
1497 1498 5
1497 1537 5
1498 1499 4
1498 1538 2
1499 1500 4
1499 1539 4
1500 1501 3
1500 1540 5
1501 1502 3
1501 1541 5
1502 1503 3
1502 1542 1
1503 1504 3
1503 1543 2
1504 1505 1
1504 1544 2
1505 1506 2
1505 1545 4
1506 1507 3
1506 1546 4
1507 1508 1
1507 1547 5
1508 1509 3
1508 1548 3
1509 1510 1
1509 1549 2
1510 1511 1
1510 1550 5
1511 1512 3
1511 1551 3
1512 1513 3
1512 1552 1
1513 1514 3
1513 1553 4
1514 1515 4
1514 1554 5
1515 1516 1
1515 1555 5
1516 1517 2
1516 1556 2
1517 1518 1
1517 1557 3
1518 1519 1
1518 1558 4
1519 1520 3
1519 1559 5
1520 1560 1
1521 1522 2
1521 1561 1
1522 1523 1
1522 1562 1
1523 1524 3
1523 1563 5
1524 1525 1
1524 1564 2
1525 1526 4
1525 1565 3
1526 1527 1
1526 1566 1
1527 1528 3
1527 1567 4
1528 1529 5
1528 1568 2
1529 1530 3
1529 1569 1
1530 1531 1
1530 1570 4
1531 1532 2
1531 1571 4
1532 1533 3
1532 1572 5
1533 1534 4
1533 1573 1
1534 1535 3
1534 1574 2
1535 1536 4
1535 1575 4
1536 1537 4
1536 1576 4
1537 1538 2
1537 1577 4
1538 1539 3
1538 1578 5
1539 1540 4
1539 1579 2
1540 1541 1
1540 1580 1
1541 1542 3
1541 1581 1
1542 1543 4
1542 1582 4
1543 1544 5
1543 1583 1
1544 1545 3
1544 1584 1
1545 1546 1
1545 1585 4
1546 1547 3
1546 1586 2
1547 1548 5
1547 1587 3
1548 1549 3
1548 1588 4
1549 1550 5
1549 1589 5
1550 1551 3
1550 1590 2
1551 1552 1
1551 1591 1
1552 1553 2
1552 1592 1
1553 1554 3
1553 1593 2
1554 1555 4
1554 1594 2
1555 1556 2
1555 1595 4
1556 1557 3
1556 1596 3
1557 1558 5
1557 1597 3
1558 1559 5
1558 1598 1
1559 1560 2
1559 1599 1
1560 1600 3
1561 1562 5
1562 1563 4
1563 1564 4
1564 1565 2
1565 1566 3
1566 1567 3
1567 1568 2
1568 1569 3
1569 1570 1
1570 1571 1
1571 1572 3
1572 1573 4
1573 1574 5
1574 1575 1
1575 1576 2
1576 1577 1
1577 1578 1
1578 1579 1
1579 1580 3
1580 1581 4
1581 1582 3
1582 1583 4
1583 1584 2
1584 1585 2
1585 1586 1
1586 1587 4
1587 1588 2
1588 1589 1
1589 1590 2
1590 1591 5
1591 1592 2
1592 1593 2
1593 1594 4
1594 1595 3
1595 1596 4
1596 1597 2
1597 1598 2
1598 1599 5
1599 1600 1
